
  22   10
  10   10   10   10   10   10   10   10   10   10

   0   0   0   0   0   0   0   0   0   0   0   5 2 3 5 8 10 
   2  10  10  10  10  10  10  10  10  10  10   5 13 12 9 7 6 
  10  10  10  10  10  10  10  10  10  10  10   3 12 9 4 
   8  10  10  10  10  10  10  10  10  10  10   2 20 6 
   2  10  10  10  10  10  10  10  10  10  10   1 6 
   7  10  10  10  10  10  10  10  10  10  10   4 21 18 15 11 
   4  10  10  10  10  10  10  10  10  10  10   5 20 19 18 16 14 
   7  10  10  10  10  10  10  10  10  10  10   5 21 20 18 16 14 
   4  10  10  10  10  10  10  10  10  10  10   3 19 18 11 
   9  10  10  10  10  10  10  10  10  10  10   3 19 16 14 
   4  10  10  10  10  10  10  10  10  10  10   2 16 14 
   2  10  10  10  10  10  10  10  10  10  10   2 20 18 
   7  10  10  10  10  10  10  10  10  10  10   2 19 18 
   5  10  10  10  10  10  10  10  10  10  10   1 17 
  10  10  10  10  10  10  10  10  10  10  10   1 16 
   7  10  10  10  10  10  10  10  10  10  10   1 22
   4  10  10  10  10  10  10  10  10  10  10   1 22
   5  10  10  10  10  10  10  10  10  10  10   1 22
   2  10  10  10  10  10  10  10  10  10  10   1 22
   9  10  10  10  10  10  10  10  10  10  10   1 22
   2  10  10  10  10  10  10  10  10  10  10   1 22
   0   0   0   0   0   0   0   0   0   0   0   0 
